c 
c G(k,n,p) graph
c graph gen seed     : 422013
c number of vertices : 70
c max number of edges: 1225
c number of classes  : 2
c edge density       : 0.200000
c edge probability   : 0.400000
c data structure     : sparse
c
c           Graph Stats
c number of vertices  : 70
c nonisolated vertices: 70
c number of edges     : 465
c edge density        : 0.192547
c max degree          : 27
c avg degree          : 13.29
c min degree          : 3
p col 70 465
e 1 67
e 1 62
e 1 55
e 1 48
e 1 32
e 1 27
e 1 24
e 1 19
e 1 14
e 1 13
e 1 3
e 1 2
e 2 69
e 2 64
e 2 61
e 2 60
e 2 57
e 2 52
e 2 51
e 2 44
e 2 41
e 2 40
e 2 39
e 2 38
e 2 37
e 2 33
e 2 31
e 2 25
e 2 23
e 2 22
e 2 16
e 2 10
e 3 69
e 3 66
e 3 61
e 3 56
e 3 49
e 3 46
e 3 42
e 3 41
e 3 40
e 3 37
e 3 35
e 3 29
e 3 26
e 3 25
e 3 17
e 3 10
e 3 9
e 3 4
e 4 68
e 4 63
e 4 55
e 4 21
e 4 19
e 4 18
e 4 7
e 5 68
e 5 63
e 5 58
e 5 54
e 5 48
e 5 45
e 5 27
e 5 21
e 5 18
e 5 15
e 5 14
e 6 70
e 6 65
e 6 61
e 6 60
e 6 59
e 6 57
e 6 46
e 6 44
e 6 40
e 6 39
e 6 37
e 6 36
e 6 34
e 6 33
e 6 29
e 6 25
e 6 23
e 6 10
e 7 70
e 7 66
e 7 65
e 7 64
e 7 57
e 7 49
e 7 47
e 7 44
e 7 42
e 7 40
e 7 38
e 7 35
e 7 34
e 7 33
e 7 29
e 7 26
e 7 20
e 7 17
e 7 16
e 7 10
e 7 8
e 8 68
e 8 63
e 8 62
e 8 58
e 8 32
e 8 27
e 8 24
e 8 21
e 8 19
e 8 15
e 8 13
e 8 11
e 9 68
e 9 63
e 9 62
e 9 48
e 9 45
e 9 27
e 9 24
e 9 19
e 10 68
e 10 67
e 10 62
e 10 55
e 10 48
e 10 45
e 10 32
e 10 24
e 10 21
e 10 15
e 10 14
e 10 11
e 11 69
e 11 66
e 11 65
e 11 60
e 11 57
e 11 56
e 11 49
e 11 47
e 11 44
e 11 42
e 11 41
e 11 40
e 11 39
e 11 38
e 11 37
e 11 36
e 11 34
e 11 33
e 11 31
e 11 26
e 11 25
e 11 23
e 11 16
e 11 12
e 12 68
e 12 67
e 12 63
e 12 58
e 12 55
e 12 48
e 12 19
e 12 18
e 12 15
e 12 13
e 13 69
e 13 60
e 13 59
e 13 50
e 13 44
e 13 42
e 13 39
e 13 38
e 13 37
e 13 34
e 13 31
e 13 17
e 14 66
e 14 65
e 14 60
e 14 59
e 14 56
e 14 44
e 14 43
e 14 42
e 14 40
e 14 34
e 14 33
e 14 31
e 14 26
e 14 25
e 14 23
e 14 17
e 15 66
e 15 65
e 15 59
e 15 56
e 15 47
e 15 46
e 15 39
e 15 37
e 15 36
e 15 35
e 15 34
e 15 25
e 15 20
e 15 17
e 16 58
e 16 55
e 16 53
e 16 27
e 16 24
e 16 19
e 16 18
e 17 68
e 17 53
e 17 48
e 17 32
e 18 69
e 18 65
e 18 64
e 18 61
e 18 50
e 18 46
e 18 44
e 18 43
e 18 41
e 18 39
e 18 38
e 18 36
e 18 30
e 18 22
e 18 20
e 19 64
e 19 60
e 19 56
e 19 51
e 19 49
e 19 46
e 19 44
e 19 43
e 19 41
e 19 40
e 19 38
e 19 35
e 19 33
e 19 31
e 19 30
e 19 29
e 19 26
e 19 23
e 19 22
e 20 68
e 20 63
e 20 32
e 20 27
e 20 24
e 21 70
e 21 69
e 21 66
e 21 65
e 21 59
e 21 50
e 21 46
e 21 44
e 21 42
e 21 41
e 21 36
e 21 35
e 21 29
e 21 28
e 21 23
e 22 68
e 22 55
e 22 48
e 22 24
e 23 68
e 23 55
e 23 53
e 23 48
e 23 45
e 23 32
e 23 27
e 24 70
e 24 65
e 24 64
e 24 59
e 24 56
e 24 51
e 24 49
e 24 47
e 24 40
e 24 39
e 24 30
e 24 29
e 24 26
e 25 67
e 25 63
e 25 58
e 25 54
e 25 53
e 25 48
e 25 45
e 25 32
e 25 27
e 26 63
e 26 58
e 26 54
e 26 45
e 27 70
e 27 64
e 27 60
e 27 59
e 27 57
e 27 50
e 27 49
e 27 43
e 27 40
e 27 39
e 27 38
e 27 33
e 27 30
e 28 68
e 28 48
e 29 67
e 29 63
e 30 68
e 30 54
e 30 48
e 30 45
e 30 32
e 31 68
e 31 67
e 31 63
e 31 45
e 31 32
e 32 69
e 32 66
e 32 60
e 32 56
e 32 52
e 32 51
e 32 50
e 32 43
e 32 42
e 32 41
e 32 37
e 32 36
e 32 33
e 33 68
e 33 67
e 33 55
e 33 48
e 34 68
e 34 63
e 34 54
e 34 53
e 34 48
e 34 45
e 35 68
e 35 63
e 35 62
e 35 54
e 35 53
e 35 45
e 36 58
e 36 55
e 36 54
e 37 53
e 37 48
e 38 63
e 38 48
e 39 63
e 39 62
e 39 58
e 39 54
e 39 53
e 40 63
e 40 62
e 40 58
e 40 54
e 40 48
e 41 68
e 41 62
e 41 54
e 41 48
e 41 45
e 42 63
e 42 62
e 42 53
e 42 48
e 43 58
e 43 55
e 43 53
e 43 48
e 43 45
e 44 63
e 44 58
e 44 54
e 44 48
e 44 45
e 45 65
e 45 61
e 45 60
e 45 52
e 45 51
e 45 50
e 45 46
e 46 54
e 47 55
e 47 48
e 48 70
e 48 69
e 48 66
e 48 65
e 48 56
e 48 50
e 49 68
e 49 58
e 50 67
e 50 63
e 50 55
e 50 54
e 51 68
e 51 63
e 51 55
e 51 53
e 53 70
e 53 65
e 53 64
e 53 59
e 54 69
e 54 66
e 54 64
e 54 61
e 54 60
e 55 70
e 55 66
e 55 57
e 55 56
e 56 62
e 56 58
e 57 62
e 58 69
e 58 64
e 58 60
e 59 68
e 60 67
e 60 63
e 61 67
e 62 66
e 63 69
e 64 68
e 64 67
e 65 67
e 66 67
e 68 69
